(declare-const t sl.tree.loc)
(declare-const d1 Int)
(declare-const d2 Int)
(declare-const d3 Int)
(assert (sl.sepcon (sl.tree t)
                   (sl.sepcon (= d1 1)
                              (sl.sepcon (= d2 2)
                                         (= d3 3)))))
(assert (not (sl.tree.dpred.unary (not (= sl.alpha d1)) t)))
(assert (not (sl.tree.dpred.unary (not (= sl.alpha d2)) t)))
(assert (not (sl.tree.dpred.unary (not (= sl.alpha d3)) t)))
